
  12   12
  10   10   10   10   10   10   10   10   10   10   10   10

   0   0   0   0   0   0   0   0   0   0   0   0   0   3 2 5 11 
   6   0   1   1   0   0   0   0   0   1   0   0   1   5 10 9 8 4 3 
   4   0   0   0   0   0   0   0   1   0   0   0   0   2 7 6 
   1   0   0   4   0   0   0   0   0   6   0   0   4   2 7 6 
  10   0   0   0   0   0   1   1   0   0   1   1   0   2 9 8 
   6   0   0  10   1   0   0   0   0   0   0  10   0   1 12
   8   0   0   0   0   0   7   0   8   0   0   0   0   1 12
   6   0   9   0   8   0   0   0   6   5   9   4   0   1 12
   9   1   0   0   6   1   0   9   0   6   0   0   7   1 12
  10   0   0   0   0   0   7   0   0   0   5   0   8   1 12
  10   9   0   0   0   9   0   0   0   7   0   0   0   1 12
   0   0   0   0   0   0   0   0   0   0   0   0   0   0 
